WARNING: for repeatability, setting FPU to use double precision
============================[ Problem Statistics ]=============================
|                                                                             |
|  Number of variables:            50                                         |
|  Number of clauses:             218                                         |
|  Parse time:                   0.00 s                                       |
|                                                                             |
============================[ Search Statistics ]==============================
| Conflicts |          ORIGINAL         |          LEARNT          | Progress |
|           |    Vars  Clauses Literals |    Limit  Clauses Lit/Cl |          |
===============================================================================
===============================================================================
restarts              : 1
conflicts             : 69             (73718 /sec)
decisions             : 76             (0.00 % random) (81197 /sec)
propagations          : 903            (964744 /sec)
conflict literals     : 248            (15.65 % deleted)
Memory used           : 20.00 MB
CPU time              : 0.000936 s

UNSATISFIABLE
